p cnf 48 56                 
4 -25 0
-1 12 0
-2 12 0
-3 12 0
1 2 3 -12 0
-4 1 -20 0
20 -23 0
-5 2 -21 0
21 -23 0
-6 3 -22 0
22 -23 0
-12 23 -24 0
24 -25 0
25 28 0
-1 28 0
5 -26 0
24 -26 0
26 29 0
-2 29 0
6 -27 0
24 -27 0
27 30 0
-3 30 0
-28 -29 -30 31 0
-31 -32 0
-5 -4 -7 0
7 -11 0
-4 8 0
-5 8 0
4 5 -8 0
-8 -6 -9 0
9 -11 0
6 8 -10 0
10 -11 0
11 -32 0
12 -32 0
-1 2 -33 0
33 -39 0
-1 -2 34 0
1 2 34 0
-2 2 34 0
-4 5 -35 0
-34 35 -36 0
36 -39 0
39 -47 0
-2 3 -40 0
40 -46 0
-2 -3 41 0
2 3 41 0
-3 3 41 0
-5 6 -42 0
-41 42 -43 0
43 -46 0
46 -47 0
32 0
47 0
